NAME : HealthcareRouting
TYPE : CVRP
DIMENSION : 16
EDGE_WEIGHT_TYPE : EUC_2D
CAPACITY : 10000
NODE_COORD_SECTION
1 409534 435871
2 409147 436256
3 409351 435734
4 409442 435810
5 408777 434870
6 409050 434674
7 409262 434873
8 409262 435017
9 409192 435244
10 409426 434622
11 409812 435857
12 409711 436281
13 410213 436728
14 408903 436834
15 409372 436561
16 410079 435087
DEMAND_SECTION
1 0
2 819
3 796
4 485
5 619
6 238
7 824
8 368
9 671
10 488
11 715
12 829
13 414
14 750
15 838
16 415
DEPOT_SECTION
1
-1
EOF